SCIP Status        : solving was interrupted [time limit reached]
Total Time         :    3600.00
  solving          :    3600.00
  presolving       :       0.07 (included in solving)
  reading          :       0.00
  copying          :       0.08 (19 #copies) (minimal 0.00, maximal 0.01, average 0.00)
Original Problem   :
  Problem name     : contvar
  Variables        : 297 (88 binary, 0 integer, 0 implicit integer, 209 continuous)
  Constraints      : 285 initial, 285 maximal
  Objective        : minimize, 1 non-zeros (abs.min = 1, abs.max = 1)
Presolved Problem  :
  Problem name     : t_contvar
  Variables        : 796 (71 binary, 0 integer, 0 implicit integer, 725 continuous)
  Constraints      : 272 initial, 272 maximal
  Objective        : minimize, 1 non-zeros (abs.min = 1, abs.max = 1)
  Nonzeros         : 1128 constraint, 224 clique table
Presolvers         :   ExecTime  SetupTime  Calls  FixedVars   AggrVars   ChgTypes  ChgBounds   AddHoles    DelCons    AddCons   ChgSides   ChgCoefs
  boundshift       :       0.00       0.00      0          0          0          0          0          0          0          0          0          0
  convertinttobin  :       0.00       0.00      0          0          0          0          0          0          0          0          0          0
  domcol           :       0.00       0.00      1          0          0          0          0          0          0          0          0          0
  dualagg          :       0.00       0.00      0          0          0          0          0          0          0          0          0          0
  dualcomp         :       0.00       0.00      1          0          0          0          0          0          0          0          0          0
  dualinfer        :       0.00       0.00      0          0          0          0          0          0          0          0          0          0
  dualsparsify     :       0.00       0.00      1          0          0          0          0          0          0          0          0          0
  gateextraction   :       0.00       0.00      0          0          0          0          0          0          0          0          0          0
  implics          :       0.00       0.00      3          0          0          0          0          0          0          0          0          0
  inttobinary      :       0.00       0.00      0          0          0          0          0          0          0          0          0          0
  qpkktref         :       0.00       0.00      0          0          0          0          0          0          0          0          0          0
  redvub           :       0.00       0.00      0          0          0          0          0          0          0          0          0          0
  sparsify         :       0.00       0.00      1          0          0          0          0          0          0          0          0          0
  stuffing         :       0.00       0.00      0          0          0          0          0          0          0          0          0          0
  trivial          :       0.00       0.00      7         17          0          0          0          0          0          0          0          0
  tworowbnd        :       0.00       0.00      0          0          0          0          0          0          0          0          0          0
  dualfix          :       0.00       0.00      7          5          0          0          0          0          0          0          0          0
  genvbounds       :       0.00       0.00      0          0          0          0          0          0          0          0          0          0
  probing          :       0.01       0.00      1          0          0          0          0          0          0          0          0          0
  pseudoobj        :       0.00       0.00      0          0          0          0          0          0          0          0          0          0
  symmetry         :       0.00       0.00      1          0          0          0          0          0          0          0          0          0
  vbounds          :       0.00       0.00      1          0          0          0          0          0          0          0          0          0
  setppc           :       0.00       0.00      5          0         16          0          0          0          0          0         16         16
  linear           :       0.00       0.00      9          0          4          0         67          0          9          0          0          0
  nonlinear        :       0.05       0.01     11          0          0          0        183          0          4          0          0        -16
  benders          :       0.00       0.00      0          0          0          0          0          0          0          0          0          0
  components       :       0.00       0.00      1          0          0          0          0          0          0          0          0          0
  root node        :          -          -      -          0          -          -        228          -          -          -          -          -
Constraints        :     Number  MaxNumber  #Separate #Propagate    #EnfoLP    #EnfoRelax  #EnfoPS    #Check   #ResProp    Cutoffs    DomReds       Cuts    Applied      Conss   Children
  benderslp        :          0          0          0          0     108159          0         23      19202          0          0          0          0          0          0          0
  integral         :          0          0          0          0     108159          0          0      19202          0          0       1822          0          0          0      11938
  setppc           :         16         16         11      64466          0          0         23      19197          0          0       7644          0          0          0          0
  linear           :        140+       141         11      64505          0          0          0      19196          0          1      50724          0          0          0          0
  nonlinear        :        116        116     185346      64504     101866          0         23      17534          0        636     688152    7777835    4755833          0      30722
  benders          :          0          0          0          0          0          0         23          3          0          0          0          0          0          0          0
  countsols        :          0          0          0          0          0          0         23          3          0          0          0          0          0          0          0
  components       :          0          0          0          0          0          0          0          0          0          0          0          0          0          0          0
Constraint Timings :  TotalTime  SetupTime   Separate  Propagate     EnfoLP     EnfoPS     EnfoRelax   Check    ResProp    SB-Prop
  benderslp        :       0.06       0.00       0.00       0.00       0.05       0.00       0.00       0.00       0.00       0.00
  integral         :      11.08       0.00       0.00       0.00      11.08       0.00       0.00       0.00       0.00       0.00
  setppc           :       0.07       0.00       0.00       0.04       0.00       0.00       0.00       0.02       0.00       0.01
  linear           :       0.45       0.00       0.00       0.32       0.00       0.00       0.00       0.11       0.00       0.02
  nonlinear        :    1977.31       0.01    1271.17       6.93     696.96       0.01       0.00       1.88       0.00       0.35
  benders          :       0.00       0.00       0.00       0.00       0.00       0.00       0.00       0.00       0.00       0.00
  countsols        :       0.00       0.00       0.00       0.00       0.00       0.00       0.00       0.00       0.00       0.00
  components       :       0.01       0.00       0.00       0.01       0.00       0.00       0.00       0.00       0.00       0.00
Propagators        : #Propagate   #ResProp    Cutoffs    DomReds
  dualfix          :          2          0          0          0
  genvbounds       :          0          0          0          0
  nlobbt           :          0          0          0          0
  obbt             :          0          0          0          0
  probing          :          0          0          0          0
  pseudoobj        :     167020          0          0          6
  redcost          :     364509          0          0       2484
  rootredcost      :          0          0          0          0
  symmetry         :          0          0          0          0
  vbounds          :       5717          0          0          0
Propagator Timings :  TotalTime  SetupTime   Presolve  Propagate    ResProp    SB-Prop
  dualfix          :       0.00       0.00       0.00       0.00       0.00       0.00
  genvbounds       :       0.22       0.00       0.00       0.22       0.00       0.00
  nlobbt           :       0.00       0.00       0.00       0.00       0.00       0.00
  obbt             :       0.00       0.00       0.00       0.00       0.00       0.00
  probing          :       0.01       0.00       0.01       0.00       0.00       0.00
  pseudoobj        :       0.24       0.00       0.00       0.23       0.00       0.00
  redcost          :       3.30       0.00       0.00       3.30       0.00       0.00
  rootredcost      :       0.06       0.00       0.00       0.06       0.00       0.00
  symmetry         :       0.02       0.00       0.00       0.01       0.00       0.00
  vbounds          :       0.11       0.00       0.00       0.11       0.00       0.00
Conflict Analysis  :       Time      Calls    Success    DomReds  Conflicts   Literals    Reconvs ReconvLits   Dualrays   Nonzeros   LP Iters   (pool size: [--,--])
  propagation      :       0.00          0          0          -          0        0.0          0        0.0          -          -          -
  infeasible LP    :       0.01         99          4          -          0        0.0          0        0.0          2        1.0          0
  bound exceed. LP :       0.00         41          1          -          0        0.0          0        0.0          1       83.0          0
  strong branching :       0.00          0          0          -          0        0.0          0        0.0          -          -          0
  pseudo solution  :       0.00          0          0          -          0        0.0          0        0.0          -          -          -
  applied globally :       0.00          -          -          0          0        0.0          -          -          0          -          -
  applied locally  :          -          -          -          2          0        0.0          -          -          3          -          -
Separators         :   ExecTime  SetupTime      Calls  RootCalls    Cutoffs    DomReds  FoundCuts ViaPoolAdd  DirectAdd    Applied ViaPoolApp  DirectApp      Conss
  cut pool         :       0.06          -      19823         21          -          -       1374       1076          -          -          -          -          -    (maximal pool size:        159)
  aggregation      :       1.18       0.00        708         11          0          0       1108        839          1        309        309          0          0
  > cmir           :          -          -          -          -          -          -          -        711          1        251        251          0          -
  > flowcover      :          -          -          -          -          -          -          -        128          0         58         58          0          -
  > knapsackcover  :          -          -          -          -          -          -          -          0          0          0          0          0          -
  cgmip            :       0.00       0.00          0          0          0          0          0          0          0          0          0          0          0
  clique           :       0.00       0.00         11         11          0          0          0          0          0          0          0          0          0
  closecuts        :       0.00       0.00          0          0          0          0          0          0          0          0          0          0          0
  convexproj       :       0.00       0.00          0          0          0          0          0          0          0          0          0          0          0
  disjunctive      :       0.00       0.00          0          0          0          0          0          0          0          0          0          0          0
  eccuts           :       0.00       0.00          0          0          0          0          0          0          0          0          0          0          0
  gauge            :       0.00       0.00          0          0          0          0          0          0          0          0          0          0          0
  gomory           :       0.13       0.00        639         10          0          0        263        237          0        118        118          0          0
  > gomorymi       :          -          -          -          -          -          -          -        237          0        118        118          0          -
  > strongcg       :          -          -          -          -          -          -          -          0          0          0          0          0          -
  impliedbounds    :       0.03       0.00        708         11          0          0          0          0          0          0          0          0          0
  interminor       :       0.00       0.00          0          0          0          0          0          0          0          0          0          0          0
  intobj           :       0.00       0.00          0          0          0          0          0          0          0          0          0          0          0
  mcf              :       0.00       0.00          1          1          0          0          0          0          0          0          0          0          0
  minor            :       0.00       0.00          0          0          0          0          0          0          0          0          0          0          0
  mixing           :       0.05       0.00       1285         11          0          0          0          0          0          0          0          0          0
  oddcycle         :       0.00       0.00          0          0          0          0          0          0          0          0          0          0          0
  rapidlearning    :       0.01       0.00          0          0          0          0          0          0          0          0          0          0          0
  rlt              :       0.00       0.00         10         10          0          0          0          0          0          0          0          0          0
  zerohalf         :       0.21       0.00        640         11          0          0          0          0          0          0          0          0          0
Cutselectors       :   ExecTime  SetupTime      Calls  RootCalls   Selected     Forced   Filtered  RootSelec   RootForc   RootFilt 
  hybrid           :       6.91       0.00     170954         11    4442229          0    1938256        699          0        621
Pricers            :   ExecTime  SetupTime      Calls       Vars
  problem variables:       0.00          -          0          0
Branching Rules    :   ExecTime  SetupTime   BranchLP  BranchExt   BranchPS    Cutoffs    DomReds       Cuts      Conss   Children
  allfullstrong    :       0.00       0.00          0          0          0          0          0          0          0          0
  cloud            :       0.00       0.00          0          0          0          0          0          0          0          0
  distribution     :       0.00       0.00          0          0          0          0          0          0          0          0
  fullstrong       :       0.00       0.00          0          0          0          0          0          0          0          0
  inference        :       0.00       0.00          0          0          0          0          0          0          0          0
  leastinf         :       0.00       0.00          0          0          0          0          0          0          0          0
  lookahead        :       0.00       0.00          0          0          0          0          0          0          0          0
  mostinf          :       0.00       0.00          0          0          0          0          0          0          0          0
  multaggr         :       0.00       0.00          0          0          0          0          0          0          0          0
  nodereopt        :       0.00       0.00          0          0          0          0          0          0          0          0
  pscost           :       0.00       0.00          0         23          0          0          0          0          0         46
  random           :       0.00       0.00          0          0          0          0          0          0          0          0
  relpscost        :      11.04       0.00       6293          0          0          0       1822          0          0      11938
  vanillafullstrong:       0.00       0.00          0          0          0          0          0          0          0          0
Primal Heuristics  :   ExecTime  SetupTime      Calls      Found       Best
  LP solutions     :       0.00          -          -          0          0
  relax solutions  :       0.00          -          -          0          0
  pseudo solutions :       0.00          -          -          0          0
  strong branching :       0.01          -          -          0          0
  actconsdiving    :       0.00       0.00          0          0          0
  adaptivediving   :       1.14       0.00       1597          0          0
  alns             :       0.24       0.00          8          0          0
  bound            :       0.00       0.00          0          0          0
  clique           :      47.49       0.00          1          0          0
  coefdiving       :       0.00       0.00          0          0          0
  completesol      :       0.00       0.00          0          0          0
  conflictdiving   :       0.00       0.00          0          0          0
  crossover        :       0.01       0.00          0          0          0
  dins             :       0.00       0.00          0          0          0
  distributiondivin:       1.47       0.00         57          0          0
  dps              :       0.00       0.00          0          0          0
  dualval          :       0.00       0.00          0          0          0
  farkasdiving     :       0.00       0.00          0          0          0
  feaspump         :       1.78       0.00         36          0          0
  fixandinfer      :       0.00       0.00          0          0          0
  fracdiving       :       0.52       0.00       1624          0          0
  gins             :       0.01       0.00          0          0          0
  guideddiving     :       0.40       0.00       1824          0          0
  indicator        :       0.11       0.00          0          0          0
  indicatordiving  :       0.00       0.00          0          0          0
  intdiving        :       0.00       0.00          0          0          0
  intshifting      :       0.01       0.00         15          0          0
  linesearchdiving :       0.34       0.00       1787          0          0
  localbranching   :       0.00       0.00          0          0          0
  locks            :       0.01       0.00          1          0          0
  lpface           :       0.01       0.00          0          0          0
  mpec             :      37.11       0.00         11          0          0
  multistart       :       0.00       0.00          0          0          0
  mutation         :       0.00       0.00          0          0          0
  nlpdiving        :       1.27       0.00          7          0          0
  objpscostdiving  :       0.60       0.00         17          0          0
  octane           :       0.00       0.00          0          0          0
  ofins            :       0.01       0.00          0          0          0
  oneopt           :       0.13       0.00          2          0          0
  padm             :       0.00       0.00          0          0          0
  proximity        :       0.00       0.00          0          0          0
  pscostdiving     :       0.90       0.00         59          0          0
  randrounding     :       0.11       0.00       1669          0          0
  rens             :       0.00       0.00          0          0          0
  reoptsols        :       0.00       0.00          0          0          0
  repair           :       0.00       0.00          0          0          0
  rins             :      30.48       0.00         10          0          0
  rootsoldiving    :       0.38       0.00         16          0          0
  rounding         :       0.32       0.00       2197          0          0
  shiftandpropagate:       0.02       0.00          1          0          0
  shifting         :       0.27       0.00        670          0          0
  simplerounding   :       0.11       0.00          0          0          0
  subnlp           :       4.04       0.00         16          2          2
  trivial          :       0.00       0.00          2          0          0
  trivialnegation  :       0.00       0.00          0          0          0
  trustregion      :       0.00       0.00          0          0          0
  trysol           :       0.06       0.00          0          0          0
  twoopt           :       0.00       0.00          0          0          0
  undercover       :       0.01       0.00          1          0          0
  vbounds          :       0.00       0.00          0          0          0
  veclendiving     :       0.42       0.00       1691          0          0
  zeroobj          :       0.00       0.00          0          0          0
  zirounding       :       0.04       0.00       1000          0          0
  other solutions  :          -          -          -          0          -
Expressions        :   #IntEval  IntEvalTi   #RevProp  RevPropTi    DomReds    Cutoffs  #Estimate  EstimTime  Branching  #Simplify SimplifyTi Simplified
  exp              :    2176012       0.35     495650       0.06       2224          0    3178387       0.52    1025475        603       0.00          1
  log              :     219698       0.05     128827       0.01        792          0    2943650       0.53    1036495        184       0.00          0
  pow              :     895863       0.28      15512       0.01       7830          0    9123167       1.80    1232314        676       0.00        106
  prod             :     951136       0.34     260025       0.35      14074          5   23268013    1231.64    7524463       1039       0.00        589
  sum              :    3618107       1.16    1022835       0.36     193792          0       4680       0.00          0       1820       0.00        631
  val              :          0       0.00          0       0.00          0          0          0       0.00          0          0       0.00          0
  var              :     391394       0.03          0       0.00          0          0          0       0.00          0       2210       0.00         73
  varidx           :          0       0.00          0       0.00          0          0          0       0.00          0          0       0.00          0
Nlhdlrs            :    Detects  DetectAll DetectTime   #IntEval  IntEvalTi   #RevProp  RevPropTi    DomReds    Cutoffs   #Enforce   EnfoTime       Cuts  Branching
  soc              :          0          0       0.00          0       0.00          0       0.00          0          0          0       0.00          0          0
  convex           :        189        189       0.00          0       0.00          0       0.00          0          0    7511617      10.91    6825058          0
  concave          :         74         74       0.00          0       0.00          0       0.00          0          0   13721026      74.44      30531          0
  signomial        :         70         70       0.00          0       0.00          0       0.00          0          0   39698495     201.48      31450          0
  quotient         :         27        115       0.00     108833       0.10        483       0.00        284         11    5653729       9.45     115469          0
  quadratic        :         34        408       0.00     353568       0.64     102612       0.22      30078         23          0       0.00          0          0
  default          :        875       9272       0.00    7854786       2.71    1923416       1.85     218712        483   38517745    1301.25     775327          0
  bilinear         :         73         73       0.00     308717       0.07      18418       0.00          0          0   11010459       1.72          0          0
  perspective      :          0          0       0.00          0       0.00          0       0.00          0          0          0       0.00          0          0
LP                 :       Time      Calls Iterations  Iter/call   Iter/sec  Time-0-It Calls-0-It    ItLimit
  primal LP        :     182.66      33747          1       1.00       0.01     182.64      33746
  dual LP          :    1117.82     259286    8127668      31.70    7270.98       7.93       2875
  lex dual LP      :       0.00          0          0       0.00          -
  barrier LP       :       0.00          0          0       0.00          -       0.00          0
  resolve instable :      24.83       2936      70605      24.05    2843.92
  diving/probing LP:       5.97        626      32779      52.36    5491.66
  strong branching :       7.69       1125      90613      80.54   11784.53          -          -        947
    (at root node) :          -          0          0       0.00          -
  conflict analysis:       0.00          0          0       0.00          -
NLP relaxation     :
  solve time       :       1.27 (7 calls)
  convexity        :  nonconvex (156 linear rows, 2 convex ineq., 24 nonconvex ineq., 90 nonlinear eq. or two-sided ineq.)
NLP Solvers        :  #Problems  ProblemTi    #Solves  SolveTime      #Iter  Time/Iter      #Okay #TimeLimit #IterLimit #LObjLimit #Interrupt  #NumError #EvalError  #OutOfMem #LicenseEr #OtherTerm   #GlobOpt    #LocOpt  #Feasible #LocInfeas #GlobInfea #Unbounded   #Unknown
  ipopt            :         32       0.23         42      41.37       6859       0.01         34          0          8          0          0          0          0          0          0          0          0          2          0         26          0          0         14
B&B Tree           :
  number of runs   :          1
  nodes            :      22128 (21353 internal, 775 leaves)
  feasible leaves  :          0
  infeas. leaves   :        725
  objective leaves :         49
  nodes (total)    :      22128 (21353 internal, 775 leaves)
  nodes left       :      20578
  max depth        :         45
  max depth (total):         45
  backtracks       :       3155 (14.3%)
  early backtracks :          0 (0.0%)
  nodes exc. ref.  :          0 (0.0%)
  delayed cutoffs  :          0
  repropagations   :          1 (0 domain reductions, 0 cutoffs)
  avg switch length:       4.37
  switching time   :     108.65
Root Node          :
  First LP value   : +2.31797034055371e+05
  First LP Iters   :        613 (50365.62 Iter/sec)
  First LP Time    :       0.01
  Final Dual Bound : +3.80531691129054e+05
  Final Root Iters :       2986
  Root LP Estimate :                     -
Solution           :
  Solutions found  :          2 (2 improvements)
  First Solution   : +8.11036192068295e+05   (in run 1, after 1 nodes, 47.95 seconds, depth 0, found by <feaspump>)
  Gap First Sol.   :     249.89 %
  Gap Last Sol.    :     100.38 %
  Primal Bound     : +8.09149816903469e+05   (in run 1, after 13417 nodes, 2474.56 seconds, depth 18, found by <guideddiving>)
  Dual Bound       : +4.07984851040830e+05
  Gap              :      98.33 %
Integrals          :      Total       Avg%
  primal-dual      :  184533.01      51.26
  primal-ref       :          -          - (not evaluated)
  dual-ref         :          -          - (not evaluated)
